multiDKnapsack.lp
\ENCODING=ISO-8859-1
\Problem name: TP2

Maximize
 obj1: 2 x_j0 + 5 x_j1 + 10 x_j2 + 3 x_j3 + 8 x_j4 + 9 x_j5 + 3 x_j6
Subject To
 capacity_1: 5 x_j0 + 2 x_j1 + 4 x_j2 + x_j3 + 3 x_j4 + 2 x_j5 + 5 x_j6 <= 15
 capacity_2: 6 x_j0 + 7 x_j1 + 5 x_j2 + 2 x_j3 + 9 x_j4 + 6 x_j5 + x_j6 <= 18
Bounds
 0 <= x_j0 <= 1
 0 <= x_j1 <= 1
 0 <= x_j2 <= 1
 0 <= x_j3 <= 1
 0 <= x_j4 <= 1
 0 <= x_j5 <= 1
 0 <= x_j6 <= 1
Binaries
 x_j0  x_j1  x_j2  x_j3  x_j4  x_j5  x_j6 
End
