multiDKnapsack.sol
<?xml version = "1.0" encoding="UTF-8" standalone="yes"?>
<CPLEXSolution version="1.2">
 <header
   problemName="TP2"
   solutionName="incumbent"
   solutionIndex="-1"
   objectiveValue="25"
   solutionTypeValue="3"
   solutionTypeString="primal"
   solutionStatusValue="101"
   solutionStatusString="integer optimal solution"
   solutionMethodString="mip"
   primalFeasible="1"
   dualFeasible="1"
   MIPNodes="0"
   MIPIterations="3"
   writeLevel="1"/>
 <quality
   epInt="1.0000000000000001e-05"
   epRHS="9.9999999999999995e-07"
   maxIntInfeas="0"
   maxPrimalInfeas="0"
   maxX="1"
   maxSlack="4"/>
 <linearConstraints>
  <constraint name="capacity_1" index="0" slack="3"/>
  <constraint name="capacity_2" index="1" slack="4"/>
 </linearConstraints>
 <variables>
  <variable name="x_j0" index="0" value="0"/>
  <variable name="x_j1" index="1" value="0"/>
  <variable name="x_j2" index="2" value="1"/>
  <variable name="x_j3" index="3" value="1"/>
  <variable name="x_j4" index="4" value="0"/>
  <variable name="x_j5" index="5" value="1"/>
  <variable name="x_j6" index="6" value="1"/>
 </variables>
</CPLEXSolution>
